\ This file has been generated by DOcplex
\ ENCODING=ISO-8859-1
\Problem name: Brandom17742_6.lp

Minimize
 obj: - 818772 x0 - 409386 x1 - 204693 x2 - 816204 x3 - 408102 x4 - 204051 x5 +
      [ 468960 x0^2 + 468960 x0*x1 + 234480 x0*x2 + 935488 x0*x3 + 467744 x0*x4
      + 233872 x0*x5 + 117240 x1^2 + 117240 x1*x2 + 467744 x1*x3 + 233872 x1*x4
      + 116936 x1*x5 + 29310 x2^2 + 233872 x2*x3 + 116936 x2*x4 + 58468 x2*x5
      + 472032 x3^2 + 472032 x3*x4 + 236016 x3*x5 + 118008 x4^2 + 118008 x4*x5
      + 29502 x5^2 ]/2 + 715204
Subject To

Bounds
 0 <= x0 <= 1
 0 <= x1 <= 1
 0 <= x2 <= 1
 0 <= x3 <= 1
 0 <= x4 <= 1
 0 <= x5 <= 1

Binaries
 x0 x1 x2 x3 x4 x5
End
